50 994 1894
1 585 485 0
2 194 94 1
3 426 326 0
4 606 506 0
5 348 248 0
6 516 416 0
7 521 421 0
8 1092 992 0
9 422 322 0
10 749 649 0
11 895 795 0
12 337 237 0
13 143 43 1
14 557 457 0
15 945 845 0
16 915 815 0
17 1055 955 0
18 546 446 0
19 352 252 0
20 522 422 1
21 109 9 1
22 891 791 0
23 1001 901 0
24 459 359 0
25 222 122 1
26 767 667 0
27 194 94 1
28 698 598 0
29 838 738 0
30 107 7 1
31 674 574 0
32 644 544 0
33 815 715 0
34 434 334 0
35 982 882 0
36 866 766 0
37 467 367 0
38 1094 994 0
39 1084 984 0
40 993 893 0
41 399 299 0
42 733 633 0
43 533 433 0
44 231 131 1
45 782 682 0
46 528 428 0
47 172 72 1
48 800 700 0
49 974 874 0
50 717 617 0